nApps = 236
nRes = 9
nActs = 484
nNetworks = 6

assignmentToResources = [1,1,1,2,1,3,2,3,2,3,2,3,2,1,2,2,1,3,2,2,2,1,2,1,2,2,1,1,3,1,3,3,1,2,1,3,2,2,2,2,3,1,3,1,1,2,3,3,3,3,3,3,2,3,3,3,2,3,3,3,3,3,3,2,2,2,2,2,2,1,2,2,3,3,1,1,2,3,1,2,2,3,3,2,3,1,2,2,3,2,3,1,2,2,1,2,1,1,2,2,4,4,4,4,4,4,4,4,4,4,4,5,5,6,6,6,6,5,5,6,6,5,6,6,6,5,6,6,6,5,4,4,4,4,4,5,4,4,6,6,6,6,6,5,5,5,5,5,5,5,4,4,4,4,4,4,5,5,5,5,5,4,4,4,4,4,4,6,6,6,6,6,6,6,6,6,5,5,4,6,5,5,5,5,5,6,6,4,4,6,6,6,4,4,4,5,6,6,6,6,6,6,6,6,6,6,6,6,6,5,6,6,6,6,6,6,5,6,6,6,6,6,6,6,6,6,6,5,5,5,5,5,5,5,5,5,6,6,6,4,6,6,6,6,4,4,4,4,4,5,6,6,6,6,6,4,4,6,6,6,5,5,5,5,5,4,5,7,6,8,5,9,4,9,6,7,4,8,6,7,6,7,5,9,5,9,6,8,5,9,6,7,6,8,4,9,5,9,4,8,5,7,4,8,5,7,4,9,6,7,5,9,4,9,6,7,5,9,8,8,8,8,8,9,8,8,9,8,8,9,9,8,8,7,7,9,7,8,8,9,8,8,8,9,8,7,8,9,8,8,8,8,8,9,9,9,7,8,8,8,8,9,7,9,9,9,7,7,8,8,9,8,9,9,9,9,9,7,7,8,8,9,8,8,9,8,8,7,7,8,7,8,8,7,9,9,8,8,7,7,7,9,7,8,8,9,8,7,8,8,8,8,9,9,7,8,8,7,8,8,8,7,8,8,7,8,8,9,8,8,7,8,8,7,7,7,7,8,7,8,8,8,8,7,8,7,9,9,7,7,9,7,9,7,8,7,8,9,8,7,8,8,8,8,8,9,9,7,8,7,8,7,7,8,8,8,7,7,7,9,7,9,7,9];

processingTimes = [144,104,112,136,136,48,80,104,112,120,136,144,104,72,56,128,128,120,128,128,152,40,104,136,112,152,80,120,112,128,128,64,96,88,136,104,96,48,96,120,104,112,80,56,136,128,168,64,120,120,128,104,144,136,120,56,120,152,88,72,112,56,64,128,56,120,136,144,152,152,96,136,112,72,136,96,104,96,120,104,48,48,136,120,136,144,136,136,120,80,168,136,120,112,104,120,72,56,96,120,4,4,3,500,3,3,4,4,500,3,3,13,3,500,3,3,500,4,3,500,4,5,500,4,3,4,4,500,4,3,4,3,500,3,500,4,4,500,6,200,4,3,3,3,3,4,4,3,500,13,3,500,500,4,4,3,8,4,500,4,4,3,3,3,4,4,4,3,3,3,3,500,500,4,4,4,4,500,4,8,100,3,4,4,3,4,7,13,13,4,4,500,3,4,4,8,8,4,4,4,500,5,3,5,8,4,4,4,500,3,3,500,5,4,5,5,4,5,4,8,5,500,4,8,16,500,3,3,5,500,4,500,4,8,4,4,4,500,3,3,5,3,3,500,3,3,3,500,3,4,500,4,4,3,500,500,3,500,500,500,3,3,3,5,5,4,4,4,8,8,5,5,4,4,4,4,13,13,4,4,4,4,3,3,4,4,4,4,4,4,4,4,4,4,4,4,3,3,4,4,4,4,3,3,4,4,5,5,4,4,4,4,13,13,10,10,5,5,4,4,3,500,3,3,4,4,500,3,3,13,3,500,3,3,500,4,3,500,4,5,500,4,3,4,4,500,4,3,4,3,500,3,500,4,4,500,6,200,4,3,3,3,3,4,4,3,500,13,3,500,500,4,4,3,8,4,500,4,4,3,3,3,4,4,4,3,3,3,3,500,500,4,4,4,4,500,4,8,100,3,4,4,3,4,7,13,13,4,4,500,3,4,4,8,8,4,4,4,500,5,3,5,8,4,4,4,500,3,3,500,5,4,5,5,4,5,4,8,5,500,4,8,16,500,3,3,5,500,4,500,4,8,4,4,4,500,3,3,5,3,3,500,3,3,3,500,3,4,500,4,4,3,500,500,3,500,500,500,3,3,3,5,5,4];

periods = [20000,10000,100000,50000,5000,100000,10000,10000,10000,100000,100000,10000,100000,10000,100000,10000,10000,2000,20000,20000,100000,10000,5000,10000,20000,10000,10000,2000,10000,20000,50000,20000,10000,10000,100000,20000,100000,20000,10000,1000,2000,100000,10000,10000,1000,20000,100000,20000,20000,100000,10000,10000,10000,20000,10000,20000,100000,100000,10000,10000,10000,100000,1000,10000,10000,10000,20000,10000,50000,20000,10000,20000,5000,10000,50000,10000,10000,20000,20000,100000,100000,20000,100000,10000,10000,5000,10000,20000,20000,20000,10000,10000,20000,20000,100000,100000,10000,20000,100000,2000,20000,20000,20000,20000,20000,20000,10000,10000,100000,100000,100000,50000,50000,100000,100000,100000,100000,10000,10000,10000,10000,10000,100000,100000,100000,100000,10000,10000,10000,100000,10000,10000,10000,10000,10000,10000,10000,10000,2000,2000,2000,2000,2000,20000,20000,20000,20000,100000,5000,5000,10000,10000,10000,10000,10000,10000,20000,20000,20000,10000,10000,10000,10000,10000,10000,10000,2000,10000,10000,10000,10000,10000,10000,20000,20000,20000,10000,10000,100000,20000,1000,1000,1000,1000,1000,2000,2000,100000,100000,10000,10000,10000,10000,1000,1000,20000,100000,20000,20000,20000,20000,20000,20000,20000,100000,10000,10000,10000,10000,10000,20000,20000,20000,10000,20000,20000,100000,100000,10000,10000,10000,10000,10000,10000,100000,100000,100000,10000,10000,10000,10000,10000,20000,10000,20000,20000,5000,5000,10000,50000,20000,20000,20000,20000,20000,20000,20000,20000,20000,100000,20000,20000,20000,100000,100000,5000,5000,20000,20000,10000,20000,20000,20000,100000,100000,10000,100000,100000,100000,100000,100000,100000,100000,100000,100000,100000,50000,50000,50000,50000,5000,5000,5000,5000,100000,100000,100000,100000,10000,10000,10000,10000,10000,10000,10000,10000,10000,10000,100000,100000,100000,100000,10000,10000,10000,10000,10000,10000,20000,20000,20000,20000,20000,20000,20000,20000,10000,10000,20000,20000,20000,20000,20000,20000,10000,10000,100000,100000,100000,50000,50000,100000,100000,100000,100000,10000,10000,10000,10000,10000,100000,100000,100000,100000,10000,10000,10000,100000,10000,10000,10000,10000,10000,10000,10000,10000,2000,2000,2000,2000,2000,20000,20000,20000,20000,100000,5000,5000,10000,10000,10000,10000,10000,10000,20000,20000,20000,10000,10000,10000,10000,10000,10000,10000,2000,10000,10000,10000,10000,10000,10000,20000,20000,20000,10000,10000,100000,20000,1000,1000,1000,1000,1000,2000,2000,100000,100000,10000,10000,10000,10000,1000,1000,20000,100000,20000,20000,20000,20000,20000,20000,20000,100000,10000,10000,10000,10000,10000,20000,20000,20000,10000,20000,20000,100000,100000,10000,10000,10000,10000,10000,10000,100000,100000,100000,10000,10000,10000,10000,10000,20000,10000,20000,20000,5000,5000,10000,50000,20000,20000,20000,20000,20000,20000,20000,20000,20000,100000,20000,20000,20000,100000,100000,5000,5000,20000,20000,10000,20000,20000,20000,100000,100000,10000];

assignmentToClusters = [1,2,3,4,5,6,7,8,9,10,11,12,13,14,11,15,16,17,18,19,20,21,5,22,23,24,25,26,9,27,4,28,8,29,20,28,13,30,8,31,32,3,21,33,34,27,3,27,35,3,36,9,37,38,37,39,20,6,40,41,42,43,44,45,46,47,48,49,4,28,50,51,5,52,4,53,54,55,56,6,6,57,58,59,60,61,21,62,63,64,65,9,66,67,68,3,21,69,3,70,71,72,73,74,75,76,77,78,79,80,81,82,83,84,85,86,87,88,89,90,91,92,93,94,95,96,97,98,99,100,101,102,103,104,105,106,107,108,109,110,111,112,113,114,115,116,117,118,119,120,121,122,123,124,125,126,127,128,129,130,131,132,133,134,135,136,137,138,139,140,141,142,143,144,145,146,147,148,149,150,151,152,153,154,155,156,157,158,159,160,161,162,163,164,165,166,167,168,169,170,171,172,173,174,175,176,177,178,179,180,181,182,183,184,185,186,187,188,189,190,191,192,193,194,195,196,197,198,199,200,201,202,203,204,205,206,207,208,209,210,211,212,213,214,215,216,217,218,219,220,221,222,223,224,225,226,227,228,229,230,231,232,233,234,235,236,3,3,3,3,3,3,3,3,3,3,4,4,4,4,5,5,5,5,6,6,6,6,8,8,8,8,9,9,9,9,9,9,20,20,20,20,21,21,21,21,21,21,27,27,27,27,28,28,28,28,37,37,71,72,73,74,75,76,77,78,79,80,81,82,83,84,85,86,87,88,89,90,91,92,93,94,95,96,97,98,99,100,101,102,103,104,105,106,107,108,109,110,111,112,113,114,115,116,117,118,119,120,121,122,123,124,125,126,127,128,129,130,131,132,133,134,135,136,137,138,139,140,141,142,143,144,145,146,147,148,149,150,151,152,153,154,155,156,157,158,159,160,161,162,163,164,165,166,167,168,169,170,171,172,173,174,175,176,177,178,179,180,181,182,183,184,185,186,187,188,189,190,191,192,193,194,195,196,197,198,199,200,201,202,203,204,205,206,207,208,209,210,211,212,213,214,215,216,217,218,219,220,221,222,223,224,225,226,227,228,229,230,231,232,233,234,235,236];

precedenceAdjList = [[],[],[267],[68,277],[281],[57],[],[289],[293],[],[],[],[],[],[10],[],[],[],[],[],[299],[],[],[],[],[],[],[],[297],[309],[],[313],[291],[],[301],[],[12],[],[],[],[],[275],[307],[],[],[],[271,273],[311],[],[],[],[295],[],[],[317],[],[],[285],[],[],[],[],[],[],[],[],[],[],[],[315],[],[],[283],[],[279],[],[],[],[],[],[287],[],[],[],[],[],[303],[],[],[],[],[],[],[],[],[],[305],[],[269],[],[],[],[],[],[],[],[],[],[],[],[],[],[],[],[],[],[],[],[],[],[],[],[],[],[],[],[],[],[],[],[],[],[],[],[],[],[],[],[],[],[],[],[],[],[],[],[],[],[],[],[],[],[],[],[],[],[],[],[],[],[],[],[],[],[],[],[],[],[],[],[],[],[],[],[],[],[],[],[],[],[],[],[],[],[],[],[],[],[],[],[],[],[],[],[],[],[],[],[],[],[],[],[],[],[],[],[],[],[],[],[],[],[],[],[],[],[],[],[],[],[],[],[],[],[],[],[],[],[],[],[],[],[],[],[],[],[],[],[],[],[],[],[],[],[],[],[],[],[],[],[],[],[],[],[],[],[],[],[],[],[],[],[],[],[],[],[98],[266],[46],[268],[95],[270],[41],[272],[49],[274],[74],[276],[30],[278],[72],[280],[22],[282],[79],[284],[5],[286],[38],[288],[7],[290],[51],[292],[91],[294],[8],[296],[34],[298],[56],[300],[21],[302],[86],[304],[96],[306],[47],[308],[45],[310],[69],[312],[35],[314],[52],[316],[100],[101],[102],[103],[104],[105],[106],[107],[108],[109],[110],[111],[112],[113],[114],[115],[116],[117],[118],[119],[120],[121],[122],[123],[124],[125],[126],[127],[128],[129],[130],[131],[132],[133],[134],[135],[136],[137],[138],[139],[140],[141],[142],[143],[144],[145],[146],[147],[148],[149],[150],[151],[152],[153],[154],[155],[156],[157],[158],[159],[160],[161],[162],[163],[164],[165],[166],[167],[168],[169],[170],[171],[172],[173],[174],[175],[176],[177],[178],[179],[180],[181],[182],[183],[184],[185],[186],[187],[188],[189],[190],[191],[192],[193],[194],[195],[196],[197],[198],[199],[200],[201],[202],[203],[204],[205],[206],[207],[208],[209],[210],[211],[212],[213],[214],[215],[216],[217],[218],[219],[220],[221],[222],[223],[224],[225],[226],[227],[228],[229],[230],[231],[232],[233],[234],[235],[236],[237],[238],[239],[240],[241],[242],[243],[244],[245],[246],[247],[248],[249],[250],[251],[252],[253],[254],[255],[256],[257],[258],[259],[260],[261],[262],[263],[264],[265]];